# Solution for model count
# Objective value = 10
z#1 0
z#2 1
z#3 0
z#4 0
z#5 1
z#6 0
z#7 1
z#8 0
z#9 1
z#10 0
z#11 1
z#12 1
z#13 1
z#14 1
z#15 0
z#16 0
z#17 0
z#18 0
z#19 0
z#20 0
z#21 1
z#22 1
z#23 0
z#24 0
x#24 0
x#23 0
x#22 150
x#21 735
x#20 0
x#19 0
x#18 0
x#17 0
x#16 0
x#15 0
x#14 3108
x#13 164
x#12 2531
x#11 501
x#10 0
x#9 560
x#8 0
x#7 315
x#6 0
x#5 1847
x#4 0
x#3 0
x#2 89
x#1 0
